NAME : anjos-80-04.-262.tour
COMMENT : Length = -262
COMMENT : Found by LKH [Keld Helsgaun] Sun Apr 13 17:05:01 2025
TYPE : TOUR
DIMENSION : 80
TOUR_SECTION
1
8
16
23
25
27
3
74
19
31
33
13
24
55
45
9
75
63
76
46
67
10
58
47
41
40
61
66
60
50
32
54
43
69
56
38
30
6
15
12
72
11
53
70
77
2
39
68
65
18
37
62
14
80
79
21
22
52
64
29
71
7
42
34
59
48
20
35
28
49
44
5
4
36
51
57
78
17
73
26
-1
EOF
